46010.0
1558
0 1 2 4 5 6 8 10 11 12 13 15 16 17 18 19 20 22 26 27 28 29 30 31 32 33 37 39 40 42 45 46 48 50 51 52 53 54 55 56 58 62 63 64 65 66 67 68 70 72 74 76 77 78 79 80 83 85 86 87 88 90 91 92 94 95 96 98 